c An instance of conditional planning (by rintanen@informatik.uni-ulm.de)
p cnf 430 1608
e 299 300 301 302 303 304 305 306 307 308 309 310 311 312 313 314 315 316 317 318 319 320 321 322 323 324 325 326 327 328 329 330 331 332 333 334 335 336 337 338 339 340 341 342 343 344 345 346 347 348 349 350 351 352 353 354 355 356 357 358 359 360 361 362 363 364 365 366 367 368 369 370 371 372 373 374 375 376 377 378 379 380 381 382 383 384 385 386 387 388 389 390 391 392 393 394 395 396 397 398 399 400 401 402 403 404 405 406 407 408 409 410 0
a 413 412 414 0
e 1 2 3 4 5 6 7 8 9 10 11 12 13 14 15 16 17 18 19 20 21 22 23 24 25 26 27 28 29 30 31 32 33 34 35 36 37 38 39 40 41 42 43 44 45 46 47 48 49 50 51 52 53 54 55 56 57 58 59 60 61 62 63 64 65 66 67 68 69 70 71 72 73 74 75 76 77 78 79 80 81 82 83 84 85 86 87 88 89 90 91 92 93 94 95 96 97 98 99 100 101 102 103 104 105 106 107 108 109 110 111 112 113 114 115 116 117 118 119 120 121 122 123 124 125 126 127 128 129 130 131 132 133 134 135 136 137 138 139 140 141 142 143 144 145 146 147 148 149 150 151 152 153 154 155 156 157 158 159 160 161 162 163 164 165 166 167 168 169 170 171 172 173 174 175 176 177 178 179 180 181 182 183 184 185 186 187 188 189 190 191 192 193 194 195 196 197 198 199 200 201 202 203 204 205 206 207 208 209 210 211 212 213 214 215 216 217 218 219 220 221 222 223 224 225 226 227 228 229 230 231 232 233 234 235 236 237 238 239 240 241 242 243 244 245 246 247 248 249 250 251 252 253 254 255 256 257 258 259 260 261 262 263 264 265 266 267 268 269 270 271 272 273 274 275 276 277 278 279 280 281 282 283 284 285 286 287 288 289 290 291 292 293 294 295 296 297 298 411 415 416 417 418 419 420 421 422 423 424 425 426 427 428 429 430 0
-413 -414 -415 412 0
-413 -414 -416 412 0
-413 -414 -417 412 0
-413 -414 -418 412 0
-413 -414 412 419 0
-413 -414 -420 412 0
-413 -414 -421 412 0
-413 -415 412 414 0
-413 -416 412 414 0
-413 -417 412 414 0
-413 412 414 418 0
-413 -419 412 414 0
-413 -420 412 414 0
-413 -421 412 414 0
-412 -414 -415 413 0
-412 -414 -416 413 0
-412 -414 413 417 0
-412 -414 -418 413 0
-412 -414 -419 413 0
-412 -414 -420 413 0
-412 -414 -421 413 0
-412 -415 413 414 0
-412 413 414 416 0
-412 -417 413 414 0
-412 -418 413 414 0
-412 -419 413 414 0
-412 -420 413 414 0
-412 -421 413 414 0
-414 412 413 415 0
-414 -416 412 413 0
-414 -417 412 413 0
-414 -418 412 413 0
-414 -419 412 413 0
-414 -420 412 413 0
-414 -421 412 413 0
-415 412 413 414 0
-416 412 413 414 0
-417 412 413 414 0
-418 412 413 414 0
-419 412 413 414 0
-420 412 413 414 0
412 413 414 421 0
-412 -413 -415 414 0
-412 -413 -416 414 0
-412 -413 -417 414 0
-412 -413 -418 414 0
-412 -413 -419 414 0
-412 -413 414 420 0
-412 -413 -421 414 0
-422 0
-423 0
-424 0
-425 0
-426 0
-427 0
-428 0
-429 0
430 0
-299 -422 0
-299 -423 0
-130 -300 0
-117 -300 0
-131 -301 0
-118 -301 0
-132 -302 0
-119 -302 0
-133 -303 0
-120 -303 0
-134 -304 0
-121 -304 0
-135 -305 0
-122 -305 0
-136 -306 0
-123 -306 0
-137 -307 0
-124 -307 0
-138 -308 0
-125 -308 0
-139 -309 0
-126 -309 0
-140 -310 0
-127 -310 0
-141 -311 0
-128 -311 0
-313 -424 0
-313 -422 0
-156 -314 0
-130 -314 0
-157 -315 0
-131 -315 0
-158 -316 0
-132 -316 0
-159 -317 0
-133 -317 0
-160 -318 0
-134 -318 0
-161 -319 0
-135 -319 0
-162 -320 0
-136 -320 0
-163 -321 0
-137 -321 0
-164 -322 0
-138 -322 0
-165 -323 0
-139 -323 0
-166 -324 0
-140 -324 0
-167 -325 0
-141 -325 0
-327 -425 0
-327 -422 0
-182 -328 0
-130 -328 0
-183 -329 0
-131 -329 0
-184 -330 0
-132 -330 0
-185 -331 0
-133 -331 0
-186 -332 0
-134 -332 0
-187 -333 0
-135 -333 0
-188 -334 0
-136 -334 0
-189 -335 0
-137 -335 0
-190 -336 0
-138 -336 0
-191 -337 0
-139 -337 0
-192 -338 0
-140 -338 0
-193 -339 0
-141 -339 0
-341 -426 0
-341 -422 0
-208 -342 0
-130 -342 0
-209 -343 0
-131 -343 0
-210 -344 0
-132 -344 0
-211 -345 0
-133 -345 0
-212 -346 0
-134 -346 0
-213 -347 0
-135 -347 0
-214 -348 0
-136 -348 0
-215 -349 0
-137 -349 0
-216 -350 0
-138 -350 0
-217 -351 0
-139 -351 0
-218 -352 0
-140 -352 0
-219 -353 0
-141 -353 0
-355 -427 0
-355 -422 0
-234 -356 0
-130 -356 0
-235 -357 0
-131 -357 0
-236 -358 0
-132 -358 0
-237 -359 0
-133 -359 0
-238 -360 0
-134 -360 0
-239 -361 0
-135 -361 0
-240 -362 0
-136 -362 0
-241 -363 0
-137 -363 0
-242 -364 0
-138 -364 0
-243 -365 0
-139 -365 0
-244 -366 0
-140 -366 0
-245 -367 0
-141 -367 0
-369 -428 0
-369 -422 0
-260 -370 0
-130 -370 0
-261 -371 0
-131 -371 0
-262 -372 0
-132 -372 0
-263 -373 0
-133 -373 0
-264 -374 0
-134 -374 0
-265 -375 0
-135 -375 0
-266 -376 0
-136 -376 0
-267 -377 0
-137 -377 0
-268 -378 0
-138 -378 0
-269 -379 0
-139 -379 0
-270 -380 0
-140 -380 0
-271 -381 0
-141 -381 0
-383 -429 0
-383 -422 0
-286 -385 0
-130 -385 0
-287 -387 0
-131 -387 0
-288 -389 0
-132 -389 0
-289 -391 0
-133 -391 0
-290 -393 0
-134 -393 0
-291 -395 0
-135 -395 0
-292 -397 0
-136 -397 0
-293 -399 0
-137 -399 0
-294 -401 0
-138 -401 0
-295 -403 0
-139 -403 0
-296 -405 0
-140 -405 0
-297 -407 0
-141 -407 0
-299 130 0
-299 117 0
-300 131 0
-300 118 0
-301 132 0
-301 119 0
-302 133 0
-302 120 0
-303 134 0
-303 121 0
-304 135 0
-304 122 0
-305 136 0
-305 123 0
-306 137 0
-306 124 0
-307 138 0
-307 125 0
-308 139 0
-308 126 0
-309 140 0
-309 127 0
-310 141 0
-310 128 0
-311 142 0
-311 129 0
-313 156 0
-313 130 0
-314 157 0
-314 131 0
-315 158 0
-315 132 0
-316 159 0
-316 133 0
-317 160 0
-317 134 0
-318 161 0
-318 135 0
-319 162 0
-319 136 0
-320 163 0
-320 137 0
-321 164 0
-321 138 0
-322 165 0
-322 139 0
-323 166 0
-323 140 0
-324 167 0
-324 141 0
-325 168 0
-325 142 0
-327 182 0
-327 130 0
-328 183 0
-328 131 0
-329 184 0
-329 132 0
-330 185 0
-330 133 0
-331 186 0
-331 134 0
-332 187 0
-332 135 0
-333 188 0
-333 136 0
-334 189 0
-334 137 0
-335 190 0
-335 138 0
-336 191 0
-336 139 0
-337 192 0
-337 140 0
-338 193 0
-338 141 0
-339 194 0
-339 142 0
-341 208 0
-341 130 0
-342 209 0
-342 131 0
-343 210 0
-343 132 0
-344 211 0
-344 133 0
-345 212 0
-345 134 0
-346 213 0
-346 135 0
-347 214 0
-347 136 0
-348 215 0
-348 137 0
-349 216 0
-349 138 0
-350 217 0
-350 139 0
-351 218 0
-351 140 0
-352 219 0
-352 141 0
-353 220 0
-353 142 0
-355 234 0
-355 130 0
-356 235 0
-356 131 0
-357 236 0
-357 132 0
-358 237 0
-358 133 0
-359 238 0
-359 134 0
-360 239 0
-360 135 0
-361 240 0
-361 136 0
-362 241 0
-362 137 0
-363 242 0
-363 138 0
-364 243 0
-364 139 0
-365 244 0
-365 140 0
-366 245 0
-366 141 0
-367 246 0
-367 142 0
-369 260 0
-369 130 0
-370 261 0
-370 131 0
-371 262 0
-371 132 0
-372 263 0
-372 133 0
-373 264 0
-373 134 0
-374 265 0
-374 135 0
-375 266 0
-375 136 0
-376 267 0
-376 137 0
-377 268 0
-377 138 0
-378 269 0
-378 139 0
-379 270 0
-379 140 0
-380 271 0
-380 141 0
-381 272 0
-381 142 0
-383 286 0
-383 130 0
-385 287 0
-385 131 0
-387 288 0
-387 132 0
-389 289 0
-389 133 0
-391 290 0
-391 134 0
-393 291 0
-393 135 0
-395 292 0
-395 136 0
-397 293 0
-397 137 0
-399 294 0
-399 138 0
-401 295 0
-401 139 0
-403 296 0
-403 140 0
-405 297 0
-405 141 0
-407 298 0
-407 142 0
-130 -384 0
-131 -386 0
-132 -388 0
-133 -390 0
-134 -392 0
-135 -394 0
-136 -396 0
-137 -398 0
-138 -400 0
-139 -402 0
-140 -404 0
-141 -406 0
-142 -408 0
-10 -299 -421 0
-9 -19 -300 0
-18 -28 -301 0
-27 -37 -302 0
-36 -46 -303 0
-45 -55 -304 0
-54 -64 -305 0
-63 -73 -306 0
-72 -82 -307 0
-81 -91 -308 0
-90 -100 -309 0
-99 -109 -310 0
-108 -311 -411 0
-10 -313 -415 0
-19 -143 -314 0
-28 -144 -315 0
-37 -145 -316 0
-46 -146 -317 0
-55 -147 -318 0
-64 -148 -319 0
-73 -149 -320 0
-82 -150 -321 0
-91 -151 -322 0
-100 -152 -323 0
-109 -153 -324 0
-154 -325 -411 0
-10 -327 -416 0
-19 -169 -328 0
-28 -170 -329 0
-37 -171 -330 0
-46 -172 -331 0
-55 -173 -332 0
-64 -174 -333 0
-73 -175 -334 0
-82 -176 -335 0
-91 -177 -336 0
-100 -178 -337 0
-109 -179 -338 0
-180 -339 -411 0
-10 -341 -417 0
-19 -195 -342 0
-28 -196 -343 0
-37 -197 -344 0
-46 -198 -345 0
-55 -199 -346 0
-64 -200 -347 0
-73 -201 -348 0
-82 -202 -349 0
-91 -203 -350 0
-100 -204 -351 0
-109 -205 -352 0
-206 -353 -411 0
-10 -355 -418 0
-19 -221 -356 0
-28 -222 -357 0
-37 -223 -358 0
-46 -224 -359 0
-55 -225 -360 0
-64 -226 -361 0
-73 -227 -362 0
-82 -228 -363 0
-91 -229 -364 0
-100 -230 -365 0
-109 -231 -366 0
-232 -367 -411 0
-10 -369 -419 0
-19 -247 -370 0
-28 -248 -371 0
-37 -249 -372 0
-46 -250 -373 0
-55 -251 -374 0
-64 -252 -375 0
-73 -253 -376 0
-82 -254 -377 0
-91 -255 -378 0
-100 -256 -379 0
-109 -257 -380 0
-258 -381 -411 0
-10 -383 -420 0
-19 -273 -385 0
-28 -274 -387 0
-37 -275 -389 0
-46 -276 -391 0
-55 -277 -393 0
-64 -278 -395 0
-73 -279 -397 0
-82 -280 -399 0
-91 -281 -401 0
-100 -282 -403 0
-109 -283 -405 0
-284 -407 -411 0
-9 421 0
-18 9 0
-27 18 0
-36 27 0
-45 36 0
-54 45 0
-63 54 0
-72 63 0
-81 72 0
-90 81 0
-99 90 0
-108 99 0
-1 108 0
-421 9 0
-9 18 0
-18 27 0
-27 36 0
-36 45 0
-45 54 0
-54 63 0
-63 72 0
-72 81 0
-81 90 0
-90 99 0
-99 108 0
-108 1 0
-10 430 0
-19 10 0
-28 19 0
-37 28 0
-46 37 0
-55 46 0
-64 55 0
-73 64 0
-82 73 0
-91 82 0
-100 91 0
-109 100 0
-411 109 0
-2 313 0
-2 415 0
-313 -415 2 0
-3 327 0
-3 416 0
-327 -416 3 0
-4 341 0
-4 417 0
-341 -417 4 0
-5 355 0
-5 418 0
-355 -418 5 0
-6 369 0
-6 419 0
-369 -419 6 0
-7 383 0
-7 420 0
-383 -420 7 0
-8 299 0
-8 421 0
-299 -421 8 0
-430 2 3 4 5 6 7 8 10 0
-11 314 0
-11 143 0
-143 -314 11 0
-12 328 0
-12 169 0
-169 -328 12 0
-13 342 0
-13 195 0
-195 -342 13 0
-14 356 0
-14 221 0
-221 -356 14 0
-15 370 0
-15 247 0
-247 -370 15 0
-16 385 0
-16 273 0
-273 -385 16 0
-17 300 0
-17 9 0
-9 -300 17 0
-10 11 12 13 14 15 16 17 19 0
-20 315 0
-20 144 0
-144 -315 20 0
-21 329 0
-21 170 0
-170 -329 21 0
-22 343 0
-22 196 0
-196 -343 22 0
-23 357 0
-23 222 0
-222 -357 23 0
-24 371 0
-24 248 0
-248 -371 24 0
-25 387 0
-25 274 0
-274 -387 25 0
-26 301 0
-26 18 0
-18 -301 26 0
-19 20 21 22 23 24 25 26 28 0
-29 316 0
-29 145 0
-145 -316 29 0
-30 330 0
-30 171 0
-171 -330 30 0
-31 344 0
-31 197 0
-197 -344 31 0
-32 358 0
-32 223 0
-223 -358 32 0
-33 372 0
-33 249 0
-249 -372 33 0
-34 389 0
-34 275 0
-275 -389 34 0
-35 302 0
-35 27 0
-27 -302 35 0
-28 29 30 31 32 33 34 35 37 0
-38 317 0
-38 146 0
-146 -317 38 0
-39 331 0
-39 172 0
-172 -331 39 0
-40 345 0
-40 198 0
-198 -345 40 0
-41 359 0
-41 224 0
-224 -359 41 0
-42 373 0
-42 250 0
-250 -373 42 0
-43 391 0
-43 276 0
-276 -391 43 0
-44 303 0
-44 36 0
-36 -303 44 0
-37 38 39 40 41 42 43 44 46 0
-47 318 0
-47 147 0
-147 -318 47 0
-48 332 0
-48 173 0
-173 -332 48 0
-49 346 0
-49 199 0
-199 -346 49 0
-50 360 0
-50 225 0
-225 -360 50 0
-51 374 0
-51 251 0
-251 -374 51 0
-52 393 0
-52 277 0
-277 -393 52 0
-53 304 0
-53 45 0
-45 -304 53 0
-46 47 48 49 50 51 52 53 55 0
-56 319 0
-56 148 0
-148 -319 56 0
-57 333 0
-57 174 0
-174 -333 57 0
-58 347 0
-58 200 0
-200 -347 58 0
-59 361 0
-59 226 0
-226 -361 59 0
-60 375 0
-60 252 0
-252 -375 60 0
-61 395 0
-61 278 0
-278 -395 61 0
-62 305 0
-62 54 0
-54 -305 62 0
-55 56 57 58 59 60 61 62 64 0
-65 320 0
-65 149 0
-149 -320 65 0
-66 334 0
-66 175 0
-175 -334 66 0
-67 348 0
-67 201 0
-201 -348 67 0
-68 362 0
-68 227 0
-227 -362 68 0
-69 376 0
-69 253 0
-253 -376 69 0
-70 397 0
-70 279 0
-279 -397 70 0
-71 306 0
-71 63 0
-63 -306 71 0
-64 65 66 67 68 69 70 71 73 0
-74 321 0
-74 150 0
-150 -321 74 0
-75 335 0
-75 176 0
-176 -335 75 0
-76 349 0
-76 202 0
-202 -349 76 0
-77 363 0
-77 228 0
-228 -363 77 0
-78 377 0
-78 254 0
-254 -377 78 0
-79 399 0
-79 280 0
-280 -399 79 0
-80 307 0
-80 72 0
-72 -307 80 0
-73 74 75 76 77 78 79 80 82 0
-83 322 0
-83 151 0
-151 -322 83 0
-84 336 0
-84 177 0
-177 -336 84 0
-85 350 0
-85 203 0
-203 -350 85 0
-86 364 0
-86 229 0
-229 -364 86 0
-87 378 0
-87 255 0
-255 -378 87 0
-88 401 0
-88 281 0
-281 -401 88 0
-89 308 0
-89 81 0
-81 -308 89 0
-82 83 84 85 86 87 88 89 91 0
-92 323 0
-92 152 0
-152 -323 92 0
-93 337 0
-93 178 0
-178 -337 93 0
-94 351 0
-94 204 0
-204 -351 94 0
-95 365 0
-95 230 0
-230 -365 95 0
-96 379 0
-96 256 0
-256 -379 96 0
-97 403 0
-97 282 0
-282 -403 97 0
-98 309 0
-98 90 0
-90 -309 98 0
-91 92 93 94 95 96 97 98 100 0
-101 324 0
-101 153 0
-153 -324 101 0
-102 338 0
-102 179 0
-179 -338 102 0
-103 352 0
-103 205 0
-205 -352 103 0
-104 366 0
-104 231 0
-231 -366 104 0
-105 380 0
-105 257 0
-257 -380 105 0
-106 405 0
-106 283 0
-283 -405 106 0
-107 310 0
-107 99 0
-99 -310 107 0
-100 101 102 103 104 105 106 107 109 0
-110 325 0
-110 154 0
-154 -325 110 0
-111 339 0
-111 180 0
-180 -339 111 0
-112 353 0
-112 206 0
-206 -353 112 0
-113 367 0
-113 232 0
-232 -367 113 0
-114 381 0
-114 258 0
-258 -381 114 0
-115 407 0
-115 284 0
-284 -407 115 0
-116 311 0
-116 108 0
-108 -311 116 0
-109 110 111 112 113 114 115 116 411 0
-117 299 423 0
-118 117 300 0
-119 118 301 0
-120 119 302 0
-121 120 303 0
-122 121 304 0
-123 122 305 0
-124 123 306 0
-125 124 307 0
-126 125 308 0
-127 126 309 0
-128 127 310 0
-129 128 311 0
-423 117 0
-117 118 0
-118 119 0
-119 120 0
-120 121 0
-121 122 0
-122 123 0
-123 124 0
-124 125 0
-125 126 0
-126 127 0
-127 128 0
-128 129 0
-130 299 313 327 341 355 369 383 422 0
-131 130 300 314 328 342 356 370 385 0
-132 131 301 315 329 343 357 371 387 0
-133 132 302 316 330 344 358 372 389 0
-134 133 303 317 331 345 359 373 391 0
-135 134 304 318 332 346 360 374 393 0
-136 135 305 319 333 347 361 375 395 0
-137 136 306 320 334 348 362 376 397 0
-138 137 307 321 335 349 363 377 399 0
-139 138 308 322 336 350 364 378 401 0
-140 139 309 323 337 351 365 379 403 0
-141 140 310 324 338 352 366 380 405 0
-142 141 311 325 339 353 367 381 407 0
-422 130 384 0
-130 131 386 0
-131 132 388 0
-132 133 390 0
-133 134 392 0
-134 135 394 0
-135 136 396 0
-136 137 398 0
-137 138 400 0
-138 139 402 0
-139 140 404 0
-140 141 406 0
-141 142 408 0
-143 415 0
-144 143 0
-145 144 0
-146 145 0
-147 146 0
-148 147 0
-149 148 0
-150 149 0
-151 150 0
-152 151 0
-153 152 0
-154 153 0
-155 154 0
-415 143 0
-143 144 0
-144 145 0
-145 146 0
-146 147 0
-147 148 0
-148 149 0
-149 150 0
-150 151 0
-151 152 0
-152 153 0
-153 154 0
-154 155 0
-156 313 424 0
-157 156 314 0
-158 157 315 0
-159 158 316 0
-160 159 317 0
-161 160 318 0
-162 161 319 0
-163 162 320 0
-164 163 321 0
-165 164 322 0
-166 165 323 0
-167 166 324 0
-168 167 325 0
-424 156 0
-156 157 0
-157 158 0
-158 159 0
-159 160 0
-160 161 0
-161 162 0
-162 163 0
-163 164 0
-164 165 0
-165 166 0
-166 167 0
-167 168 0
-169 416 0
-170 169 0
-171 170 0
-172 171 0
-173 172 0
-174 173 0
-175 174 0
-176 175 0
-177 176 0
-178 177 0
-179 178 0
-180 179 0
-181 180 0
-416 169 0
-169 170 0
-170 171 0
-171 172 0
-172 173 0
-173 174 0
-174 175 0
-175 176 0
-176 177 0
-177 178 0
-178 179 0
-179 180 0
-180 181 0
-182 327 425 0
-183 182 328 0
-184 183 329 0
-185 184 330 0
-186 185 331 0
-187 186 332 0
-188 187 333 0
-189 188 334 0
-190 189 335 0
-191 190 336 0
-192 191 337 0
-193 192 338 0
-194 193 339 0
-425 182 0
-182 183 0
-183 184 0
-184 185 0
-185 186 0
-186 187 0
-187 188 0
-188 189 0
-189 190 0
-190 191 0
-191 192 0
-192 193 0
-193 194 0
-195 417 0
-196 195 0
-197 196 0
-198 197 0
-199 198 0
-200 199 0
-201 200 0
-202 201 0
-203 202 0
-204 203 0
-205 204 0
-206 205 0
-207 206 0
-417 195 0
-195 196 0
-196 197 0
-197 198 0
-198 199 0
-199 200 0
-200 201 0
-201 202 0
-202 203 0
-203 204 0
-204 205 0
-205 206 0
-206 207 0
-208 341 426 0
-209 208 342 0
-210 209 343 0
-211 210 344 0
-212 211 345 0
-213 212 346 0
-214 213 347 0
-215 214 348 0
-216 215 349 0
-217 216 350 0
-218 217 351 0
-219 218 352 0
-220 219 353 0
-426 208 0
-208 209 0
-209 210 0
-210 211 0
-211 212 0
-212 213 0
-213 214 0
-214 215 0
-215 216 0
-216 217 0
-217 218 0
-218 219 0
-219 220 0
-221 418 0
-222 221 0
-223 222 0
-224 223 0
-225 224 0
-226 225 0
-227 226 0
-228 227 0
-229 228 0
-230 229 0
-231 230 0
-232 231 0
-233 232 0
-418 221 0
-221 222 0
-222 223 0
-223 224 0
-224 225 0
-225 226 0
-226 227 0
-227 228 0
-228 229 0
-229 230 0
-230 231 0
-231 232 0
-232 233 0
-234 355 427 0
-235 234 356 0
-236 235 357 0
-237 236 358 0
-238 237 359 0
-239 238 360 0
-240 239 361 0
-241 240 362 0
-242 241 363 0
-243 242 364 0
-244 243 365 0
-245 244 366 0
-246 245 367 0
-427 234 0
-234 235 0
-235 236 0
-236 237 0
-237 238 0
-238 239 0
-239 240 0
-240 241 0
-241 242 0
-242 243 0
-243 244 0
-244 245 0
-245 246 0
-247 419 0
-248 247 0
-249 248 0
-250 249 0
-251 250 0
-252 251 0
-253 252 0
-254 253 0
-255 254 0
-256 255 0
-257 256 0
-258 257 0
-259 258 0
-419 247 0
-247 248 0
-248 249 0
-249 250 0
-250 251 0
-251 252 0
-252 253 0
-253 254 0
-254 255 0
-255 256 0
-256 257 0
-257 258 0
-258 259 0
-260 369 428 0
-261 260 370 0
-262 261 371 0
-263 262 372 0
-264 263 373 0
-265 264 374 0
-266 265 375 0
-267 266 376 0
-268 267 377 0
-269 268 378 0
-270 269 379 0
-271 270 380 0
-272 271 381 0
-428 260 0
-260 261 0
-261 262 0
-262 263 0
-263 264 0
-264 265 0
-265 266 0
-266 267 0
-267 268 0
-268 269 0
-269 270 0
-270 271 0
-271 272 0
-273 420 0
-274 273 0
-275 274 0
-276 275 0
-277 276 0
-278 277 0
-279 278 0
-280 279 0
-281 280 0
-282 281 0
-283 282 0
-284 283 0
-285 284 0
-420 273 0
-273 274 0
-274 275 0
-275 276 0
-276 277 0
-277 278 0
-278 279 0
-279 280 0
-280 281 0
-281 282 0
-282 283 0
-283 284 0
-284 285 0
-286 383 429 0
-287 286 385 0
-288 287 387 0
-289 288 389 0
-290 289 391 0
-291 290 393 0
-292 291 395 0
-293 292 397 0
-294 293 399 0
-295 294 401 0
-296 295 403 0
-297 296 405 0
-298 297 407 0
-429 286 0
-286 287 0
-287 288 0
-288 289 0
-289 290 0
-290 291 0
-291 292 0
-292 293 0
-293 294 0
-294 295 0
-295 296 0
-296 297 0
-297 298 0
-299 -313 0
-300 -314 0
-301 -315 0
-302 -316 0
-303 -317 0
-304 -318 0
-305 -319 0
-306 -320 0
-307 -321 0
-308 -322 0
-309 -323 0
-310 -324 0
-311 -325 0
-312 -326 0
-299 -327 0
-300 -328 0
-301 -329 0
-302 -330 0
-303 -331 0
-304 -332 0
-305 -333 0
-306 -334 0
-307 -335 0
-308 -336 0
-309 -337 0
-310 -338 0
-311 -339 0
-312 -340 0
-299 -341 0
-300 -342 0
-301 -343 0
-302 -344 0
-303 -345 0
-304 -346 0
-305 -347 0
-306 -348 0
-307 -349 0
-308 -350 0
-309 -351 0
-310 -352 0
-311 -353 0
-312 -354 0
-299 -355 0
-300 -356 0
-301 -357 0
-302 -358 0
-303 -359 0
-304 -360 0
-305 -361 0
-306 -362 0
-307 -363 0
-308 -364 0
-309 -365 0
-310 -366 0
-311 -367 0
-312 -368 0
-299 -369 0
-300 -370 0
-301 -371 0
-302 -372 0
-303 -373 0
-304 -374 0
-305 -375 0
-306 -376 0
-307 -377 0
-308 -378 0
-309 -379 0
-310 -380 0
-311 -381 0
-312 -382 0
-299 -383 0
-300 -385 0
-301 -387 0
-302 -389 0
-303 -391 0
-304 -393 0
-305 -395 0
-306 -397 0
-307 -399 0
-308 -401 0
-309 -403 0
-310 -405 0
-311 -407 0
-312 -409 0
-299 -384 0
-300 -386 0
-301 -388 0
-302 -390 0
-303 -392 0
-304 -394 0
-305 -396 0
-306 -398 0
-307 -400 0
-308 -402 0
-309 -404 0
-310 -406 0
-311 -408 0
-312 -410 0
-313 -327 0
-314 -328 0
-315 -329 0
-316 -330 0
-317 -331 0
-318 -332 0
-319 -333 0
-320 -334 0
-321 -335 0
-322 -336 0
-323 -337 0
-324 -338 0
-325 -339 0
-326 -340 0
-313 -341 0
-314 -342 0
-315 -343 0
-316 -344 0
-317 -345 0
-318 -346 0
-319 -347 0
-320 -348 0
-321 -349 0
-322 -350 0
-323 -351 0
-324 -352 0
-325 -353 0
-326 -354 0
-313 -355 0
-314 -356 0
-315 -357 0
-316 -358 0
-317 -359 0
-318 -360 0
-319 -361 0
-320 -362 0
-321 -363 0
-322 -364 0
-323 -365 0
-324 -366 0
-325 -367 0
-326 -368 0
-313 -369 0
-314 -370 0
-315 -371 0
-316 -372 0
-317 -373 0
-318 -374 0
-319 -375 0
-320 -376 0
-321 -377 0
-322 -378 0
-323 -379 0
-324 -380 0
-325 -381 0
-326 -382 0
-313 -383 0
-314 -385 0
-315 -387 0
-316 -389 0
-317 -391 0
-318 -393 0
-319 -395 0
-320 -397 0
-321 -399 0
-322 -401 0
-323 -403 0
-324 -405 0
-325 -407 0
-326 -409 0
-313 -384 0
-314 -386 0
-315 -388 0
-316 -390 0
-317 -392 0
-318 -394 0
-319 -396 0
-320 -398 0
-321 -400 0
-322 -402 0
-323 -404 0
-324 -406 0
-325 -408 0
-326 -410 0
-327 -341 0
-328 -342 0
-329 -343 0
-330 -344 0
-331 -345 0
-332 -346 0
-333 -347 0
-334 -348 0
-335 -349 0
-336 -350 0
-337 -351 0
-338 -352 0
-339 -353 0
-340 -354 0
-327 -355 0
-328 -356 0
-329 -357 0
-330 -358 0
-331 -359 0
-332 -360 0
-333 -361 0
-334 -362 0
-335 -363 0
-336 -364 0
-337 -365 0
-338 -366 0
-339 -367 0
-340 -368 0
-327 -369 0
-328 -370 0
-329 -371 0
-330 -372 0
-331 -373 0
-332 -374 0
-333 -375 0
-334 -376 0
-335 -377 0
-336 -378 0
-337 -379 0
-338 -380 0
-339 -381 0
-340 -382 0
-327 -383 0
-328 -385 0
-329 -387 0
-330 -389 0
-331 -391 0
-332 -393 0
-333 -395 0
-334 -397 0
-335 -399 0
-336 -401 0
-337 -403 0
-338 -405 0
-339 -407 0
-340 -409 0
-327 -384 0
-328 -386 0
-329 -388 0
-330 -390 0
-331 -392 0
-332 -394 0
-333 -396 0
-334 -398 0
-335 -400 0
-336 -402 0
-337 -404 0
-338 -406 0
-339 -408 0
-340 -410 0
-341 -355 0
-342 -356 0
-343 -357 0
-344 -358 0
-345 -359 0
-346 -360 0
-347 -361 0
-348 -362 0
-349 -363 0
-350 -364 0
-351 -365 0
-352 -366 0
-353 -367 0
-354 -368 0
-341 -369 0
-342 -370 0
-343 -371 0
-344 -372 0
-345 -373 0
-346 -374 0
-347 -375 0
-348 -376 0
-349 -377 0
-350 -378 0
-351 -379 0
-352 -380 0
-353 -381 0
-354 -382 0
-341 -383 0
-342 -385 0
-343 -387 0
-344 -389 0
-345 -391 0
-346 -393 0
-347 -395 0
-348 -397 0
-349 -399 0
-350 -401 0
-351 -403 0
-352 -405 0
-353 -407 0
-354 -409 0
-341 -384 0
-342 -386 0
-343 -388 0
-344 -390 0
-345 -392 0
-346 -394 0
-347 -396 0
-348 -398 0
-349 -400 0
-350 -402 0
-351 -404 0
-352 -406 0
-353 -408 0
-354 -410 0
-355 -369 0
-356 -370 0
-357 -371 0
-358 -372 0
-359 -373 0
-360 -374 0
-361 -375 0
-362 -376 0
-363 -377 0
-364 -378 0
-365 -379 0
-366 -380 0
-367 -381 0
-368 -382 0
-355 -383 0
-356 -385 0
-357 -387 0
-358 -389 0
-359 -391 0
-360 -393 0
-361 -395 0
-362 -397 0
-363 -399 0
-364 -401 0
-365 -403 0
-366 -405 0
-367 -407 0
-368 -409 0
-355 -384 0
-356 -386 0
-357 -388 0
-358 -390 0
-359 -392 0
-360 -394 0
-361 -396 0
-362 -398 0
-363 -400 0
-364 -402 0
-365 -404 0
-366 -406 0
-367 -408 0
-368 -410 0
-369 -383 0
-370 -385 0
-371 -387 0
-372 -389 0
-373 -391 0
-374 -393 0
-375 -395 0
-376 -397 0
-377 -399 0
-378 -401 0
-379 -403 0
-380 -405 0
-381 -407 0
-382 -409 0
-369 -384 0
-370 -386 0
-371 -388 0
-372 -390 0
-373 -392 0
-374 -394 0
-375 -396 0
-376 -398 0
-377 -400 0
-378 -402 0
-379 -404 0
-380 -406 0
-381 -408 0
-382 -410 0
-383 -384 0
-385 -386 0
-387 -388 0
-389 -390 0
-391 -392 0
-393 -394 0
-395 -396 0
-397 -398 0
-399 -400 0
-401 -402 0
-403 -404 0
-405 -406 0
-407 -408 0
-409 -410 0
-411 0
